% demand
num_movements = 19;
loading_factor = [900, 1450, 1300, 1750, 900, 1550, 1550, 800, 1550, 1100, 1100, 1100, 900, 1400, 1350, 1500, 1850, 900, 1050];
pickup_time = [0, 0, 0, 0, 0, 1, 1, 2, 3, 3, 3, 3, 3, 4, 4, 4, 4, 4, 6];
delivery_time = [1, 2, 3, 1, 2, 3, 3, 4, 4, 4, 4, 4, 4, 6, 6, 6, 8, 6, 7];

% transporter definition
total_capacity = 7000;
num_decks = 3;
capacity = [3000, 1000, 3000];

% ways out of decks
num_ways_out = 1;
paths_out = array3d(decks, ways_out, decks, [
% ways out of deck d1
2, 3, 0, 

% ways out of deck d2
3, 0, 0, 

% ways out of deck d3
0, 0, 0,	

]);

